#SOLVERNAME# PAJ_Gurobi_MOSEK_msd_noinit
#SOLVER# Pajarito.PajaritoSolver(3, 3600.0, 1.0e-5, true, Gurobi.GurobiSolver(nothing, Any[(:OutputFlag, 1), (:Threads, 8), (:IntFeasTol, 1.0e-9), (:FeasibilityTol, 1.0e-8), (:MIPGap, 1.0e-5)]), Pajarito.UnsetSolver(), 0, false, true, Mosek.MosekSolver(Any[(:LOG, 0), (:NUM_THREADS, 8), (:MSK_DPAR_INTPNT_CO_TOL_REL_GAP, 1.0e-10), (:MSK_DPAR_INTPNT_CO_TOL_PFEAS, 1.0e-10), (:MSK_DPAR_INTPNT_CO_TOL_DFEAS, 1.0e-10), (:MSK_DPAR_INTPNT_CO_TOL_NEAR_REL, 1000.0)]), true, true, false, false, true, false, false, true, false, false, false, false, false, false, true, 10.0, true, false, false, true, 1.0e-12, 1.0e-8, false, "")
#INSTANCE# rsyn0815h.cbf.gz
#TIMELIMIT# 3600.0

Problem dimensions:
       variables |     399
     constraints |    1035
   nonzeros in A |    1832

Cones summary:
Cone             | Count   | Min dim.  | Max dim. 
   Primal expon. |      11 |         3 |         3

Variable types:
      continuous |     352
         integer |      47

Transforming data...               0.00s

Creating conic subproblem...       0.22s

Building MIP model...              0.00s

Solving conic relaxation...        0.02s
 - Relaxation status    =        Optimal
 - Relaxation bound     =   -1354.787776
Academic license - for non-commercial use only
Optimize a model with 1035 rows, 399 columns and 1854 nonzeros
Variable types: 352 continuous, 47 integer (0 binary)
Coefficient statistics:
  Matrix range     [4e-05, 5e+02]
  Objective range  [1e+00, 1e+00]
  Bounds range     [0e+00, 0e+00]
  RHS range        [2e-01, 4e+03]
Presolve removed 858 rows and 220 columns
Presolve time: 0.00s
Presolved: 177 rows, 179 columns, 543 nonzeros
Variable types: 142 continuous, 37 integer (37 binary)

Root relaxation: objective -1.341330e+03, 121 iterations, 0.00 seconds

    Nodes    |    Current Node    |     Objective Bounds      |     Work
 Expl Unexpl |  Obj  Depth IntInf | Incumbent    BestBd   Gap | It/Node Time

     0     0 -1341.3304    0    8          - -1341.3304      -     -    0s
     0     0 -1276.2658    0    5          - -1276.2658      -     -    0s
     0     0 -1275.9236    0    6          - -1275.9236      -     -    0s
H    0     0                    -1224.881320 -1275.9236  4.17%     -    0s
     0     0 -1274.8550    0    7 -1224.8813 -1274.8550  4.08%     -    0s
H    0     0                    -1265.048525 -1274.8550  0.78%     -    0s
     0     0 -1274.7026    0    6 -1265.0485 -1274.7026  0.76%     -    0s
     0     0 -1274.6399    0    6 -1265.0485 -1274.6399  0.76%     -    0s
H    0     0                    -1269.925649 -1274.6399  0.37%     -    0s
     0     0 -1274.6188    0    6 -1269.9256 -1274.6188  0.37%     -    0s
     0     0 -1274.6188    0    6 -1269.9256 -1274.6188  0.37%     -    0s
     0     0 -1274.6188    0    3 -1269.9256 -1274.6188  0.37%     -    0s
     0     0 -1274.6188    0    5 -1269.9256 -1274.6188  0.37%     -    0s
     0     0 -1272.8796    0    5 -1269.9256 -1272.8796  0.23%     -    0s
     0     0 -1272.8796    0    5 -1269.9256 -1272.8796  0.23%     -    0s
     0     0 -1271.0408    0    3 -1269.9256 -1271.0408  0.09%     -    0s
     0     0 -1270.7277    0    3 -1269.9256 -1270.7277  0.06%     -    0s
     0     0 -1269.9603    0    1 -1269.9256 -1269.9603  0.00%     -    0s

Cutting planes:
  Gomory: 2
  Implied bound: 4
  MIR: 3
  Flow cover: 5
  Lazy constraints: 1

Explored 1 nodes (285 simplex iterations) in 0.17 seconds
Thread count was 8 (of 16 available processors)

Solution count 3: -1269.93 -1265.05 -1224.88 

Optimal solution found (tolerance 1.00e-05)
Best objective -1.269925649468e+03, best bound -1.269925649468e+03, gap 0.0000%

Starting MIP-solver-driven algorithm

MIP-solver-driven algorithm summary:
 - Status               =        Optimal
 - Best feasible        =  -1.269926e+03
 - Best bound           =  -1.269926e+03
 - Relative opt. gap    =     -9.532e-10
 - Total time (s)       =       4.59e-01

Timers (s):
 - Setup                =   2.29e-01
 -- Transform data      =   1.22e-03
 -- Create conic data   =   2.24e-01
 -- Create MIP data     =   3.29e-03
 - Algorithm            =   2.31e-01
 -- Solve relaxation    =   2.43e-02
 -- Get relaxation cuts =   2.38e-02
 -- MIP solver driving  =   1.82e-01
 -- Solve subproblems   =   3.26e-02
 -- Get subproblem cuts =   3.84e-04
 -- Get separation cuts =   3.73e-04

Counters:
 - Lazy callbacks       =    19
 -- Integer repeats     =    13
 -- Conic subproblems   =     7
 --- Infeasible         =     0
 --- Optimal            =     7
 --- Suboptimal         =     0
 --- UserLimit          =     0
 --- ConicFailure       =     0
 --- Other status       =     0
 -- Feasible solutions  =    18
 --- From subproblems   =     7
 --- In lazy callback   =    11
 - Heuristic callbacks  =    15
 -- Solutions passed    =     4

Solution returned by conic solver

Rounds of full separation/subproblem cuts, and count of cuts added:
Cone             | Subp.  | Sep.   | Total  | Relax. | Viol. 
   Primal expon. |     49 |     17 |     19 |     11 |     19

Distance to feasibility (negative indicates strict feasibility):
Cone             | Variable  | Constraint
          Linear |        NA |  3.51e-09
   Primal expon. |        NA |  1.07e-08

Distance to integrality of integer/binary variables:
         integer |  0.00e+00

#STATUS# Optimal
#OBJVAL# -1269.925650678782
#OBJBOUND# -1269.9256494682795
#NODECOUNT# 1
#TIMESOLVER# 0.4594259262084961
#TIMEALL# 0.4722938537597656
#SOLUTION# [13.775821409353382,0.40483144687375416,24.99999994672791,20.771428564806207,16.999999993607364,41.20285713046923,29.9999999895891,0.2,0.5000000118584167,0.20000000267016707,0.6000000080105012,0.0,1.0,0.0,0.0,0.0,0.0,0.0,0.0,0.0,0.0,1.0,-0.0,0.0,0.0,0.0,1.0,0.0,0.0,0.0,0.0,1.0,0.0,0.0,1.0,-1.317466558532306e-9,1.5564930570767386,0.2743948631272307,-0.0,-0.0,-0.0,-0.0,0.0,1.0,0.0,0.0,1.0,0.0,0.0,0.0,0.0,1.0,1.0,0.0,0.0,0.0,0.0,1269.925650678782,68.8791070467669,12.749999951929533,63.749999759647665,1.025821457423849,5.129107287119244,10.199999961543627,50.99999980771813,10.199999961543627,50.99999980771813,0.8096628937475083,2.5645536466453076,5.129107293290615,3.231337590885124,4.61619655840732,6.254948670565298,8.935640957950426,20.833333288939926,6.098039152296147,5.081699293580123,2.1597221997715526,4.319444399543105,3.0236110796801734,4.319444399543105,18.901960794431762,15.751633995359802,16.066666675266998,13.388888896055832,14.999999994359438,12.499999995299532,1.0666666809075578,0.8888889007562982,0.20000000267016707,0.6666666755672236,0.6000000080105012,0.6666666755672236,0.20000000267016707,0.6666666755672236,0.6000000080105012,0.6666666755672236,51.928571412015515,4.999999998119813,12.499999995299532,15.771428566686788,39.42857141671697,16.999999993607364,10.624999996004602,10.624999996004602,41.20285713046923,37.457142845881116,37.457142845881116,42.85714284227014,29.999999989589096,42.85714284227014,27.599999990421967,39.42857141488852,1.0,0.7142857312263097,0.6666666755672236,0.6666666755672236,2.5499999903859067,0.3590375131840327,0.9147058728444218,2.835294119164765,0.2666666702268895,2.999999998871889,2.1685714266404688,2.399999999167128,-0.0,-0.0,50.99999980771813,-0.0,-0.0,-0.0,63.749999759647665,-0.0,4.61619655840732,-0.0,-0.0,-0.0,5.129107287119244,-0.0,-0.0,-0.0,4.319444399543105,-0.0,-0.0,-0.0,4.319444399543105,-0.0,-0.0,-0.0,5.081699293580123,-0.0,-0.0,-0.0,-0.0,-0.0,13.388888896055832,-0.0,-0.0,-0.0,15.751633995359802,-0.0,0.6666666755672236,-0.0,-0.0,-0.0,0.6666666755672236,-0.0,-0.0,-0.0,0.8888889007562981,-0.0,-0.0,-0.0,-0.0,10.624999996004602,-0.0,-0.0,-0.0,12.499999995299532,-0.0,-0.0,-0.0,-0.0,-0.0,37.457142845881116,-0.0,-0.0,-0.0,39.42857141671697,-0.0,-0.0,-0.0,39.42857141488852,-0.0,-0.0,-0.0,42.85714284227013,0.0,1.0,1.0,0.0,1.0,0.0,0.0,0.0,-0.0,-0.0,12.749999951929533,-0.0,1.025821457423849,-0.0,-0.0,-0.0,2.5645536466453076,-0.0,-0.0,-0.0,6.098039152296147,-0.0,-0.0,-0.0,-0.0,-0.0,18.901960794431762,-0.0,1.0666666809075578,-0.0,-0.0,-0.0,-0.0,14.999999994359438,-0.0,-0.0,-0.0,4.999999998119813,-0.0,-0.0,-0.0,-0.0,-0.0,15.771428566686788,-0.0,-0.0,-0.0,27.599999990421967,-0.0,-0.0,-0.0,29.999999989589096,40.0,-0.0,-0.0,40.0,-0.0,-0.0,-0.0,-0.0,-0.0,-0.0,-0.0,-0.0,-0.0,-0.0,-0.0,13.0,-0.0,-0.0,13.0,-0.0,-0.0,-0.0,-0.0,-0.0,-0.0,9.0,-0.0,9.0,-0.0,-0.0,28.0,-0.0,-0.0,-0.0,28.0,23.0,-0.0,-0.0,-0.0,23.0,9.999999963408372,5.754948658706877,-0.0,-0.0,-0.0,9.999999963408372,-0.0,2.877474328035972,2.877474328035972,2.8774743293534386,-0.0,-0.0,2.8774743293534386,-0.0,-0.0,-0.0,2.8774743293534386,-0.0,2.5941550951278978,0.28331923603124287,-0.0,-0.0,-0.0,-0.0,-0.0,1.5564930570767386,-0.0,0.2743948631272307,-0.0,-0.0,0.0,-0.0,-0.0,-0.0,-0.0,-2.3978952704415053,9.999999963408372,2.877474328035972,-0.0,-0.0,-0.0,-0.0,-0.0,-0.0,0.0,-0.0,-0.0,-0.0,-0.0,-0.0,2.8774743293534386,2.8774743293534386,5.754948658706877,-0.0,-0.0,-0.0,0.0,-0.0,-0.0,-0.0,-0.0,-0.0,0.0,-0.0,-0.0,-0.0,-0.0,-0.0,0.0,-0.0,-0.0,-0.0,-0.0,-0.0,-0.0,-0.0,-0.0,2.5941550951278978,1.5564930570767386,-0.0,-0.0,-0.24944987300637705,0.28331923603124287,0.2743948631272307,-0.0,-0.0,-0.0,-0.0,-0.0,-0.0,-0.0,-0.0,0.0,-0.0,-0.0,-0.0,-0.0,0.0,-0.0,-0.0,-0.0,-0.0,0.0,-0.0,-0.0,0.0,-0.0,-0.0,-0.0,-0.0]
